14832
1 0 0 0 0 1 0 1 0 0 0 1 0 0 1 0 0 1 0 0 1 1 0 0 0 0 0 0 0 0 
20 11 20 17 20 5 7 5 17 17 21 20 14 20 7 14 17 17 11 11 0 0 21 7 21 20 17 5 5 21 21 11 7 11 20 20 5 11 0 14 0 14 5 7 5 14 0 20 11 14 21 7 14 5 14 20 17 21 0 14 0 5 20 0 0 11 11 0 21 21 14 20 11 0 5 14 21 20 7 11 20 7 20 17 7 17 17 7 20 11 17 5 7 0 7 5 17 7 21 7 17 7 17 11 17 11 7 0 14 14 14 17 17 11 11 21 5 5 5 5 11 17 11 20 20 0 5 21 0 21 0 0 5 21 14 14 7 11 20 17 0 20 20 14 14 11 11 5 17 5 
